92
25
0 30 34 35 36 37 38 39 40 41 42 43 44 45 50 52 55 60 61 62 63 64 66 67 68 69 70 71 72 76 79 80 84 85 86 89 90
1 25 26 34 35 36 37 38 40 42 43 44 45 51 52 61 62 63 67 70 71 76 77 79 80 86 87 89
2 34 36 38 39 40 43 44 45 52 53 55 59 61 62 63 64 68 69 71 72 77 78 79 80 84 86 90
3 25 27 30 32 33 34 36 38 39 40 41 42 44 52 54 55 58 59 61 63 67 69 70 71 72 76 77 78 79 84 86 87 89 90
4 26 27 29 31 32 33 35 36 37 38 39 40 45 51 55 57 59 61 63 65 66 67 70 72 76 78 79 81 82 86 88 89
5 25 26 32 33 34 36 38 39 40 42 43 45 51 52 55 57 59 60 63 64 65 66 67 69 70 71 72 74 76 77 78 80 82 84 85 90
6 25 27 29 33 34 36 40 43 44 51 52 55 59 61 62 63 64 65 69 70 71 72 73 78 79 80 81 82 83 85 86 88
7 25 27 33 34 36 39 40 42 43 45 46 49 51 52 54 55 57 60 62 64 65 67 69 70 71 72 76 77 78 84 86 87 90 91
8 27 29 32 33 34 35 36 37 38 39 41 43 44 45 49 55 59 60 63 65 67 69 72 76 77 79 84 86 89 90 91
9 26 27 31 32 33 34 37 38 39 40 41 42 51 52 54 55 59 60 63 64 67 68 70 71 72 76 77 78 79 85 87 90 91
10 25 30 31 32 34 36 37 38 42 45 46 59 63 66 69 70 71 75 79 80 83 86 87 88
11 25 27 28 29 32 38 39 42 43 44 45 48 51 52 54 55 58 61 63 64 66 70 71 77 78 85 90
12 25 27 31 34 39 41 43 44 49 53 55 64 66 67 70 72 76 82 86 88 90
13 26 27 32 35 36 38 42 44 46 51 54 59 60 63 69 70 71 80 84 89 90
14 34 38 42 43 48 53 57 60 61 62 65 66 68 71 72 76 78 80 81 82 83 85 86 89 91
15 26 27 30 33 35 42 45 49 54 57 59 62 66 67 70 78 79 80 86 88 89 90
16 25 26 33 36 40 42 45 46 47 51 52 61 68 72 78 79 84 85 86
17 26 31 35 39 41 42 52 53 55 58 60 61 64 68 78 81 84 85 88
18 25 30 39 40 49 51 52 53 55 57 58 59 60 66 67 69 74 76 79 81 87 88 89 91
19 27 33 41 45 67 81 85 88 89
20 27 30 32 48 53 54 57 59 62 68 80 81
21 31 38 45 48 77
22 38 49 51 65 66 81
23 28 30 36 56 67 74
24 35 37 90
